solution status: optimal solution found
objective value:                                    0
$_110_y                                            12 	(obj:0)
$_110_z                                            14 	(obj:0)
$_121_y                                            17 	(obj:0)
$_121_z                                            16 	(obj:0)
$_122_y                                            16 	(obj:0)
$_122_z                                            12 	(obj:0)
$_111_y                                            15 	(obj:0)
$_111_z                                            14 	(obj:0)
$_114_y                                            12 	(obj:0)
$_114_z                                            16 	(obj:0)
$_112_y                                            11 	(obj:0)
$_112_z                                            16 	(obj:0)
$_120_y                                            15 	(obj:0)
$_120_z                                            15 	(obj:0)
$_109_y                                            17 	(obj:0)
$_109_z                                            15 	(obj:0)
$_123_y                                            16 	(obj:0)
$_123_z                                            11 	(obj:0)
$_113_y                                            11 	(obj:0)
$_113_z                                            14 	(obj:0)
